p cnf 12 50 
-9 10 -2 0
5 10 -1 0
-7 -1 -6 0
7 -3 -5 0
-1 9 -2 0
-3 -2 -5 0
10 2 7 0
-7 11 5 0
-7 6 -9 0
-5 1 -2 0
3 8 -5 0
-12 -4 11 0
-6 -9 8 0
-8 -2 -1 0
3 2 10 0
8 1 9 0
12 -2 9 0
11 2 8 0
-12 -1 -3 0
5 -3 10 0
-2 6 5 0
1 -2 -4 0
6 10 -4 0
-12 -8 -2 0
-9 -7 11 0
2 12 4 0
10 -4 -7 0
-11 -6 7 0
9 11 3 0
5 -2 11 0
5 2 8 0
7 -11 -10 0
12 5 -7 0
4 -1 -2 0
-6 2 -4 0
2 8 11 0
3 -5 4 0
6 -12 11 0
1 3 6 0
-2 -7 -9 0
-6 -5 -2 0
-12 -6 7 0
-3 -4 8 0
-2 1 6 0
-7 -4 -1 0
10 -12 -6 0
-3 4 6 0
-2 11 3 0
-10 -6 2 0
8 -11 -12 0
